set Stages :=
		Ano1Stage
		Ano2Stage
		Ano3Stage
		Ano4Stage
;
set Nodes := NodeStage1
	NodeStage2_PD1Y1
	NodeStage2_PD1Y2
	NodeStage2_PD2Y1
	NodeStage2_PD2Y2
	NodeStage2_PD3Y1
	NodeStage2_PD3Y2
	NodeStage3_PD1Y1_PD1Y1
	NodeStage3_PD1Y1_PD1Y2
	NodeStage3_PD1Y1_PD2Y1
	NodeStage3_PD1Y1_PD2Y2
	NodeStage3_PD1Y2_PD1Y1
	NodeStage3_PD1Y2_PD1Y2
	NodeStage3_PD1Y2_PD2Y1
	NodeStage3_PD1Y2_PD2Y2
	NodeStage3_PD2Y1_PD1Y1
	NodeStage3_PD2Y1_PD1Y2
	NodeStage3_PD2Y1_PD2Y1
	NodeStage3_PD2Y1_PD2Y2
	NodeStage3_PD2Y2_PD1Y1
	NodeStage3_PD2Y2_PD1Y2
	NodeStage3_PD2Y2_PD2Y1
	NodeStage3_PD2Y2_PD2Y2
	NodeStage3_PD3Y1_PD1Y1
	NodeStage3_PD3Y1_PD1Y2
	NodeStage3_PD3Y1_PD2Y1
	NodeStage3_PD3Y1_PD2Y2
	NodeStage3_PD3Y2_PD1Y1
	NodeStage3_PD3Y2_PD1Y2
	NodeStage3_PD3Y2_PD2Y1
	NodeStage3_PD3Y2_PD2Y2
	NodeStage4_PD1Y1_PD1Y1_PD1Y1
	NodeStage4_PD1Y1_PD1Y1_PD2Y1
	NodeStage4_PD1Y1_PD1Y2_PD1Y1
	NodeStage4_PD1Y1_PD1Y2_PD2Y1
	NodeStage4_PD1Y1_PD2Y1_PD1Y1
	NodeStage4_PD1Y1_PD2Y1_PD2Y1
	NodeStage4_PD1Y1_PD2Y2_PD1Y1
	NodeStage4_PD1Y1_PD2Y2_PD2Y1
	NodeStage4_PD1Y2_PD1Y1_PD1Y1
	NodeStage4_PD1Y2_PD1Y1_PD2Y1
	NodeStage4_PD1Y2_PD1Y2_PD1Y1
	NodeStage4_PD1Y2_PD1Y2_PD2Y1
	NodeStage4_PD1Y2_PD2Y1_PD1Y1
	NodeStage4_PD1Y2_PD2Y1_PD2Y1
	NodeStage4_PD1Y2_PD2Y2_PD1Y1
	NodeStage4_PD1Y2_PD2Y2_PD2Y1
	NodeStage4_PD2Y1_PD1Y1_PD1Y1
	NodeStage4_PD2Y1_PD1Y1_PD2Y1
	NodeStage4_PD2Y1_PD1Y2_PD1Y1
	NodeStage4_PD2Y1_PD1Y2_PD2Y1
	NodeStage4_PD2Y1_PD2Y1_PD1Y1
	NodeStage4_PD2Y1_PD2Y1_PD2Y1
	NodeStage4_PD2Y1_PD2Y2_PD1Y1
	NodeStage4_PD2Y1_PD2Y2_PD2Y1
	NodeStage4_PD2Y2_PD1Y1_PD1Y1
	NodeStage4_PD2Y2_PD1Y1_PD2Y1
	NodeStage4_PD2Y2_PD1Y2_PD1Y1
	NodeStage4_PD2Y2_PD1Y2_PD2Y1
	NodeStage4_PD2Y2_PD2Y1_PD1Y1
	NodeStage4_PD2Y2_PD2Y1_PD2Y1
	NodeStage4_PD2Y2_PD2Y2_PD1Y1
	NodeStage4_PD2Y2_PD2Y2_PD2Y1
	NodeStage4_PD3Y1_PD1Y1_PD1Y1
	NodeStage4_PD3Y1_PD1Y1_PD2Y1
	NodeStage4_PD3Y1_PD1Y2_PD1Y1
	NodeStage4_PD3Y1_PD1Y2_PD2Y1
	NodeStage4_PD3Y1_PD2Y1_PD1Y1
	NodeStage4_PD3Y1_PD2Y1_PD2Y1
	NodeStage4_PD3Y1_PD2Y2_PD1Y1
	NodeStage4_PD3Y1_PD2Y2_PD2Y1
	NodeStage4_PD3Y2_PD1Y1_PD1Y1
	NodeStage4_PD3Y2_PD1Y1_PD2Y1
	NodeStage4_PD3Y2_PD1Y2_PD1Y1
	NodeStage4_PD3Y2_PD1Y2_PD2Y1
	NodeStage4_PD3Y2_PD2Y1_PD1Y1
	NodeStage4_PD3Y2_PD2Y1_PD2Y1
	NodeStage4_PD3Y2_PD2Y2_PD1Y1
	NodeStage4_PD3Y2_PD2Y2_PD2Y1
;
param NodeStage :=	NodeStage1      		Ano1Stage
	NodeStage2_PD1Y1			Ano2Stage
	NodeStage2_PD1Y2			Ano2Stage
	NodeStage2_PD2Y1			Ano2Stage
	NodeStage2_PD2Y2			Ano2Stage
	NodeStage2_PD3Y1			Ano2Stage
	NodeStage2_PD3Y2			Ano2Stage
	NodeStage3_PD1Y1_PD1Y1			Ano3Stage
	NodeStage3_PD1Y1_PD1Y2			Ano3Stage
	NodeStage3_PD1Y1_PD2Y1			Ano3Stage
	NodeStage3_PD1Y1_PD2Y2			Ano3Stage
	NodeStage3_PD1Y2_PD1Y1			Ano3Stage
	NodeStage3_PD1Y2_PD1Y2			Ano3Stage
	NodeStage3_PD1Y2_PD2Y1			Ano3Stage
	NodeStage3_PD1Y2_PD2Y2			Ano3Stage
	NodeStage3_PD2Y1_PD1Y1			Ano3Stage
	NodeStage3_PD2Y1_PD1Y2			Ano3Stage
	NodeStage3_PD2Y1_PD2Y1			Ano3Stage
	NodeStage3_PD2Y1_PD2Y2			Ano3Stage
	NodeStage3_PD2Y2_PD1Y1			Ano3Stage
	NodeStage3_PD2Y2_PD1Y2			Ano3Stage
	NodeStage3_PD2Y2_PD2Y1			Ano3Stage
	NodeStage3_PD2Y2_PD2Y2			Ano3Stage
	NodeStage3_PD3Y1_PD1Y1			Ano3Stage
	NodeStage3_PD3Y1_PD1Y2			Ano3Stage
	NodeStage3_PD3Y1_PD2Y1			Ano3Stage
	NodeStage3_PD3Y1_PD2Y2			Ano3Stage
	NodeStage3_PD3Y2_PD1Y1			Ano3Stage
	NodeStage3_PD3Y2_PD1Y2			Ano3Stage
	NodeStage3_PD3Y2_PD2Y1			Ano3Stage
	NodeStage3_PD3Y2_PD2Y2			Ano3Stage
	NodeStage4_PD1Y1_PD1Y1_PD1Y1			Ano4Stage
	NodeStage4_PD1Y1_PD1Y1_PD2Y1			Ano4Stage
	NodeStage4_PD1Y1_PD1Y2_PD1Y1			Ano4Stage
	NodeStage4_PD1Y1_PD1Y2_PD2Y1			Ano4Stage
	NodeStage4_PD1Y1_PD2Y1_PD1Y1			Ano4Stage
	NodeStage4_PD1Y1_PD2Y1_PD2Y1			Ano4Stage
	NodeStage4_PD1Y1_PD2Y2_PD1Y1			Ano4Stage
	NodeStage4_PD1Y1_PD2Y2_PD2Y1			Ano4Stage
	NodeStage4_PD1Y2_PD1Y1_PD1Y1			Ano4Stage
	NodeStage4_PD1Y2_PD1Y1_PD2Y1			Ano4Stage
	NodeStage4_PD1Y2_PD1Y2_PD1Y1			Ano4Stage
	NodeStage4_PD1Y2_PD1Y2_PD2Y1			Ano4Stage
	NodeStage4_PD1Y2_PD2Y1_PD1Y1			Ano4Stage
	NodeStage4_PD1Y2_PD2Y1_PD2Y1			Ano4Stage
	NodeStage4_PD1Y2_PD2Y2_PD1Y1			Ano4Stage
	NodeStage4_PD1Y2_PD2Y2_PD2Y1			Ano4Stage
	NodeStage4_PD2Y1_PD1Y1_PD1Y1			Ano4Stage
	NodeStage4_PD2Y1_PD1Y1_PD2Y1			Ano4Stage
	NodeStage4_PD2Y1_PD1Y2_PD1Y1			Ano4Stage
	NodeStage4_PD2Y1_PD1Y2_PD2Y1			Ano4Stage
	NodeStage4_PD2Y1_PD2Y1_PD1Y1			Ano4Stage
	NodeStage4_PD2Y1_PD2Y1_PD2Y1			Ano4Stage
	NodeStage4_PD2Y1_PD2Y2_PD1Y1			Ano4Stage
	NodeStage4_PD2Y1_PD2Y2_PD2Y1			Ano4Stage
	NodeStage4_PD2Y2_PD1Y1_PD1Y1			Ano4Stage
	NodeStage4_PD2Y2_PD1Y1_PD2Y1			Ano4Stage
	NodeStage4_PD2Y2_PD1Y2_PD1Y1			Ano4Stage
	NodeStage4_PD2Y2_PD1Y2_PD2Y1			Ano4Stage
	NodeStage4_PD2Y2_PD2Y1_PD1Y1			Ano4Stage
	NodeStage4_PD2Y2_PD2Y1_PD2Y1			Ano4Stage
	NodeStage4_PD2Y2_PD2Y2_PD1Y1			Ano4Stage
	NodeStage4_PD2Y2_PD2Y2_PD2Y1			Ano4Stage
	NodeStage4_PD3Y1_PD1Y1_PD1Y1			Ano4Stage
	NodeStage4_PD3Y1_PD1Y1_PD2Y1			Ano4Stage
	NodeStage4_PD3Y1_PD1Y2_PD1Y1			Ano4Stage
	NodeStage4_PD3Y1_PD1Y2_PD2Y1			Ano4Stage
	NodeStage4_PD3Y1_PD2Y1_PD1Y1			Ano4Stage
	NodeStage4_PD3Y1_PD2Y1_PD2Y1			Ano4Stage
	NodeStage4_PD3Y1_PD2Y2_PD1Y1			Ano4Stage
	NodeStage4_PD3Y1_PD2Y2_PD2Y1			Ano4Stage
	NodeStage4_PD3Y2_PD1Y1_PD1Y1			Ano4Stage
	NodeStage4_PD3Y2_PD1Y1_PD2Y1			Ano4Stage
	NodeStage4_PD3Y2_PD1Y2_PD1Y1			Ano4Stage
	NodeStage4_PD3Y2_PD1Y2_PD2Y1			Ano4Stage
	NodeStage4_PD3Y2_PD2Y1_PD1Y1			Ano4Stage
	NodeStage4_PD3Y2_PD2Y1_PD2Y1			Ano4Stage
	NodeStage4_PD3Y2_PD2Y2_PD1Y1			Ano4Stage
	NodeStage4_PD3Y2_PD2Y2_PD2Y1			Ano4Stage
;
set Children[NodeStage1]:=
	NodeStage2_PD1Y1
	NodeStage2_PD1Y2
	NodeStage2_PD2Y1
	NodeStage2_PD2Y2
	NodeStage2_PD3Y1
	NodeStage2_PD3Y2
;
set Children[NodeStage2_PD1Y1]:=
	NodeStage3_PD1Y1_PD1Y1
	NodeStage3_PD1Y1_PD1Y2
	NodeStage3_PD1Y1_PD2Y1
	NodeStage3_PD1Y1_PD2Y2
;
set Children[NodeStage2_PD1Y2]:=
	NodeStage3_PD1Y2_PD1Y1
	NodeStage3_PD1Y2_PD1Y2
	NodeStage3_PD1Y2_PD2Y1
	NodeStage3_PD1Y2_PD2Y2
;
set Children[NodeStage2_PD2Y1]:=
	NodeStage3_PD2Y1_PD1Y1
	NodeStage3_PD2Y1_PD1Y2
	NodeStage3_PD2Y1_PD2Y1
	NodeStage3_PD2Y1_PD2Y2
;
set Children[NodeStage2_PD2Y2]:=
	NodeStage3_PD2Y2_PD1Y1
	NodeStage3_PD2Y2_PD1Y2
	NodeStage3_PD2Y2_PD2Y1
	NodeStage3_PD2Y2_PD2Y2
;
set Children[NodeStage2_PD3Y1]:=
	NodeStage3_PD3Y1_PD1Y1
	NodeStage3_PD3Y1_PD1Y2
	NodeStage3_PD3Y1_PD2Y1
	NodeStage3_PD3Y1_PD2Y2
;
set Children[NodeStage2_PD3Y2]:=
	NodeStage3_PD3Y2_PD1Y1
	NodeStage3_PD3Y2_PD1Y2
	NodeStage3_PD3Y2_PD2Y1
	NodeStage3_PD3Y2_PD2Y2
;
set Children[NodeStage3_PD1Y1_PD1Y1]:=
	NodeStage4_PD1Y1_PD1Y1_PD1Y1
	NodeStage4_PD1Y1_PD1Y1_PD2Y1
;
set Children[NodeStage3_PD1Y1_PD1Y2]:=
	NodeStage4_PD1Y1_PD1Y2_PD1Y1
	NodeStage4_PD1Y1_PD1Y2_PD2Y1
;
set Children[NodeStage3_PD1Y1_PD2Y1]:=
	NodeStage4_PD1Y1_PD2Y1_PD1Y1
	NodeStage4_PD1Y1_PD2Y1_PD2Y1
;
set Children[NodeStage3_PD1Y1_PD2Y2]:=
	NodeStage4_PD1Y1_PD2Y2_PD1Y1
	NodeStage4_PD1Y1_PD2Y2_PD2Y1
;
set Children[NodeStage3_PD1Y2_PD1Y1]:=
	NodeStage4_PD1Y2_PD1Y1_PD1Y1
	NodeStage4_PD1Y2_PD1Y1_PD2Y1
;
set Children[NodeStage3_PD1Y2_PD1Y2]:=
	NodeStage4_PD1Y2_PD1Y2_PD1Y1
	NodeStage4_PD1Y2_PD1Y2_PD2Y1
;
set Children[NodeStage3_PD1Y2_PD2Y1]:=
	NodeStage4_PD1Y2_PD2Y1_PD1Y1
	NodeStage4_PD1Y2_PD2Y1_PD2Y1
;
set Children[NodeStage3_PD1Y2_PD2Y2]:=
	NodeStage4_PD1Y2_PD2Y2_PD1Y1
	NodeStage4_PD1Y2_PD2Y2_PD2Y1
;
set Children[NodeStage3_PD2Y1_PD1Y1]:=
	NodeStage4_PD2Y1_PD1Y1_PD1Y1
	NodeStage4_PD2Y1_PD1Y1_PD2Y1
;
set Children[NodeStage3_PD2Y1_PD1Y2]:=
	NodeStage4_PD2Y1_PD1Y2_PD1Y1
	NodeStage4_PD2Y1_PD1Y2_PD2Y1
;
set Children[NodeStage3_PD2Y1_PD2Y1]:=
	NodeStage4_PD2Y1_PD2Y1_PD1Y1
	NodeStage4_PD2Y1_PD2Y1_PD2Y1
;
set Children[NodeStage3_PD2Y1_PD2Y2]:=
	NodeStage4_PD2Y1_PD2Y2_PD1Y1
	NodeStage4_PD2Y1_PD2Y2_PD2Y1
;
set Children[NodeStage3_PD2Y2_PD1Y1]:=
	NodeStage4_PD2Y2_PD1Y1_PD1Y1
	NodeStage4_PD2Y2_PD1Y1_PD2Y1
;
set Children[NodeStage3_PD2Y2_PD1Y2]:=
	NodeStage4_PD2Y2_PD1Y2_PD1Y1
	NodeStage4_PD2Y2_PD1Y2_PD2Y1
;
set Children[NodeStage3_PD2Y2_PD2Y1]:=
	NodeStage4_PD2Y2_PD2Y1_PD1Y1
	NodeStage4_PD2Y2_PD2Y1_PD2Y1
;
set Children[NodeStage3_PD2Y2_PD2Y2]:=
	NodeStage4_PD2Y2_PD2Y2_PD1Y1
	NodeStage4_PD2Y2_PD2Y2_PD2Y1
;
set Children[NodeStage3_PD3Y1_PD1Y1]:=
	NodeStage4_PD3Y1_PD1Y1_PD1Y1
	NodeStage4_PD3Y1_PD1Y1_PD2Y1
;
set Children[NodeStage3_PD3Y1_PD1Y2]:=
	NodeStage4_PD3Y1_PD1Y2_PD1Y1
	NodeStage4_PD3Y1_PD1Y2_PD2Y1
;
set Children[NodeStage3_PD3Y1_PD2Y1]:=
	NodeStage4_PD3Y1_PD2Y1_PD1Y1
	NodeStage4_PD3Y1_PD2Y1_PD2Y1
;
set Children[NodeStage3_PD3Y1_PD2Y2]:=
	NodeStage4_PD3Y1_PD2Y2_PD1Y1
	NodeStage4_PD3Y1_PD2Y2_PD2Y1
;
set Children[NodeStage3_PD3Y2_PD1Y1]:=
	NodeStage4_PD3Y2_PD1Y1_PD1Y1
	NodeStage4_PD3Y2_PD1Y1_PD2Y1
;
set Children[NodeStage3_PD3Y2_PD1Y2]:=
	NodeStage4_PD3Y2_PD1Y2_PD1Y1
	NodeStage4_PD3Y2_PD1Y2_PD2Y1
;
set Children[NodeStage3_PD3Y2_PD2Y1]:=
	NodeStage4_PD3Y2_PD2Y1_PD1Y1
	NodeStage4_PD3Y2_PD2Y1_PD2Y1
;
set Children[NodeStage3_PD3Y2_PD2Y2]:=
	NodeStage4_PD3Y2_PD2Y2_PD1Y1
	NodeStage4_PD3Y2_PD2Y2_PD2Y1
;
param ConditionalProbability := NodeStage1 1
	NodeStage2_PD1Y1			0.166666666667
	NodeStage2_PD1Y2			0.166666666667
	NodeStage2_PD2Y1			0.166666666667
	NodeStage2_PD2Y2			0.166666666667
	NodeStage2_PD3Y1			0.166666666667
	NodeStage2_PD3Y2			0.166666666667
	NodeStage3_PD1Y1_PD1Y1			0.25
	NodeStage3_PD1Y1_PD1Y2			0.25
	NodeStage3_PD1Y1_PD2Y1			0.25
	NodeStage3_PD1Y1_PD2Y2			0.25
	NodeStage3_PD1Y2_PD1Y1			0.25
	NodeStage3_PD1Y2_PD1Y2			0.25
	NodeStage3_PD1Y2_PD2Y1			0.25
	NodeStage3_PD1Y2_PD2Y2			0.25
	NodeStage3_PD2Y1_PD1Y1			0.25
	NodeStage3_PD2Y1_PD1Y2			0.25
	NodeStage3_PD2Y1_PD2Y1			0.25
	NodeStage3_PD2Y1_PD2Y2			0.25
	NodeStage3_PD2Y2_PD1Y1			0.25
	NodeStage3_PD2Y2_PD1Y2			0.25
	NodeStage3_PD2Y2_PD2Y1			0.25
	NodeStage3_PD2Y2_PD2Y2			0.25
	NodeStage3_PD3Y1_PD1Y1			0.25
	NodeStage3_PD3Y1_PD1Y2			0.25
	NodeStage3_PD3Y1_PD2Y1			0.25
	NodeStage3_PD3Y1_PD2Y2			0.25
	NodeStage3_PD3Y2_PD1Y1			0.25
	NodeStage3_PD3Y2_PD1Y2			0.25
	NodeStage3_PD3Y2_PD2Y1			0.25
	NodeStage3_PD3Y2_PD2Y2			0.25
	NodeStage4_PD1Y1_PD1Y1_PD1Y1			0.5
	NodeStage4_PD1Y1_PD1Y1_PD2Y1			0.5
	NodeStage4_PD1Y1_PD1Y2_PD1Y1			0.5
	NodeStage4_PD1Y1_PD1Y2_PD2Y1			0.5
	NodeStage4_PD1Y1_PD2Y1_PD1Y1			0.5
	NodeStage4_PD1Y1_PD2Y1_PD2Y1			0.5
	NodeStage4_PD1Y1_PD2Y2_PD1Y1			0.5
	NodeStage4_PD1Y1_PD2Y2_PD2Y1			0.5
	NodeStage4_PD1Y2_PD1Y1_PD1Y1			0.5
	NodeStage4_PD1Y2_PD1Y1_PD2Y1			0.5
	NodeStage4_PD1Y2_PD1Y2_PD1Y1			0.5
	NodeStage4_PD1Y2_PD1Y2_PD2Y1			0.5
	NodeStage4_PD1Y2_PD2Y1_PD1Y1			0.5
	NodeStage4_PD1Y2_PD2Y1_PD2Y1			0.5
	NodeStage4_PD1Y2_PD2Y2_PD1Y1			0.5
	NodeStage4_PD1Y2_PD2Y2_PD2Y1			0.5
	NodeStage4_PD2Y1_PD1Y1_PD1Y1			0.5
	NodeStage4_PD2Y1_PD1Y1_PD2Y1			0.5
	NodeStage4_PD2Y1_PD1Y2_PD1Y1			0.5
	NodeStage4_PD2Y1_PD1Y2_PD2Y1			0.5
	NodeStage4_PD2Y1_PD2Y1_PD1Y1			0.5
	NodeStage4_PD2Y1_PD2Y1_PD2Y1			0.5
	NodeStage4_PD2Y1_PD2Y2_PD1Y1			0.5
	NodeStage4_PD2Y1_PD2Y2_PD2Y1			0.5
	NodeStage4_PD2Y2_PD1Y1_PD1Y1			0.5
	NodeStage4_PD2Y2_PD1Y1_PD2Y1			0.5
	NodeStage4_PD2Y2_PD1Y2_PD1Y1			0.5
	NodeStage4_PD2Y2_PD1Y2_PD2Y1			0.5
	NodeStage4_PD2Y2_PD2Y1_PD1Y1			0.5
	NodeStage4_PD2Y2_PD2Y1_PD2Y1			0.5
	NodeStage4_PD2Y2_PD2Y2_PD1Y1			0.5
	NodeStage4_PD2Y2_PD2Y2_PD2Y1			0.5
	NodeStage4_PD3Y1_PD1Y1_PD1Y1			0.5
	NodeStage4_PD3Y1_PD1Y1_PD2Y1			0.5
	NodeStage4_PD3Y1_PD1Y2_PD1Y1			0.5
	NodeStage4_PD3Y1_PD1Y2_PD2Y1			0.5
	NodeStage4_PD3Y1_PD2Y1_PD1Y1			0.5
	NodeStage4_PD3Y1_PD2Y1_PD2Y1			0.5
	NodeStage4_PD3Y1_PD2Y2_PD1Y1			0.5
	NodeStage4_PD3Y1_PD2Y2_PD2Y1			0.5
	NodeStage4_PD3Y2_PD1Y1_PD1Y1			0.5
	NodeStage4_PD3Y2_PD1Y1_PD2Y1			0.5
	NodeStage4_PD3Y2_PD1Y2_PD1Y1			0.5
	NodeStage4_PD3Y2_PD1Y2_PD2Y1			0.5
	NodeStage4_PD3Y2_PD2Y1_PD1Y1			0.5
	NodeStage4_PD3Y2_PD2Y1_PD2Y1			0.5
	NodeStage4_PD3Y2_PD2Y2_PD1Y1			0.5
	NodeStage4_PD3Y2_PD2Y2_PD2Y1			0.5
;
set Scenarios :=
	Scenario1
	Scenario2
	Scenario3
	Scenario4
	Scenario5
	Scenario6
	Scenario7
	Scenario8
	Scenario9
	Scenario10
	Scenario11
	Scenario12
	Scenario13
	Scenario14
	Scenario15
	Scenario16
	Scenario17
	Scenario18
	Scenario19
	Scenario20
	Scenario21
	Scenario22
	Scenario23
	Scenario24
	Scenario25
	Scenario26
	Scenario27
	Scenario28
	Scenario29
	Scenario30
	Scenario31
	Scenario32
	Scenario33
	Scenario34
	Scenario35
	Scenario36
	Scenario37
	Scenario38
	Scenario39
	Scenario40
	Scenario41
	Scenario42
	Scenario43
	Scenario44
	Scenario45
	Scenario46
	Scenario47
	Scenario48
;
param ScenarioLeafNode :=
	Scenario1		NodeStage4_PD1Y1_PD1Y1_PD1Y1
	Scenario2		NodeStage4_PD1Y1_PD1Y1_PD2Y1
	Scenario3		NodeStage4_PD1Y1_PD1Y2_PD1Y1
	Scenario4		NodeStage4_PD1Y1_PD1Y2_PD2Y1
	Scenario5		NodeStage4_PD1Y1_PD2Y1_PD1Y1
	Scenario6		NodeStage4_PD1Y1_PD2Y1_PD2Y1
	Scenario7		NodeStage4_PD1Y1_PD2Y2_PD1Y1
	Scenario8		NodeStage4_PD1Y1_PD2Y2_PD2Y1
	Scenario9		NodeStage4_PD1Y2_PD1Y1_PD1Y1
	Scenario10		NodeStage4_PD1Y2_PD1Y1_PD2Y1
	Scenario11		NodeStage4_PD1Y2_PD1Y2_PD1Y1
	Scenario12		NodeStage4_PD1Y2_PD1Y2_PD2Y1
	Scenario13		NodeStage4_PD1Y2_PD2Y1_PD1Y1
	Scenario14		NodeStage4_PD1Y2_PD2Y1_PD2Y1
	Scenario15		NodeStage4_PD1Y2_PD2Y2_PD1Y1
	Scenario16		NodeStage4_PD1Y2_PD2Y2_PD2Y1
	Scenario17		NodeStage4_PD2Y1_PD1Y1_PD1Y1
	Scenario18		NodeStage4_PD2Y1_PD1Y1_PD2Y1
	Scenario19		NodeStage4_PD2Y1_PD1Y2_PD1Y1
	Scenario20		NodeStage4_PD2Y1_PD1Y2_PD2Y1
	Scenario21		NodeStage4_PD2Y1_PD2Y1_PD1Y1
	Scenario22		NodeStage4_PD2Y1_PD2Y1_PD2Y1
	Scenario23		NodeStage4_PD2Y1_PD2Y2_PD1Y1
	Scenario24		NodeStage4_PD2Y1_PD2Y2_PD2Y1
	Scenario25		NodeStage4_PD2Y2_PD1Y1_PD1Y1
	Scenario26		NodeStage4_PD2Y2_PD1Y1_PD2Y1
	Scenario27		NodeStage4_PD2Y2_PD1Y2_PD1Y1
	Scenario28		NodeStage4_PD2Y2_PD1Y2_PD2Y1
	Scenario29		NodeStage4_PD2Y2_PD2Y1_PD1Y1
	Scenario30		NodeStage4_PD2Y2_PD2Y1_PD2Y1
	Scenario31		NodeStage4_PD2Y2_PD2Y2_PD1Y1
	Scenario32		NodeStage4_PD2Y2_PD2Y2_PD2Y1
	Scenario33		NodeStage4_PD3Y1_PD1Y1_PD1Y1
	Scenario34		NodeStage4_PD3Y1_PD1Y1_PD2Y1
	Scenario35		NodeStage4_PD3Y1_PD1Y2_PD1Y1
	Scenario36		NodeStage4_PD3Y1_PD1Y2_PD2Y1
	Scenario37		NodeStage4_PD3Y1_PD2Y1_PD1Y1
	Scenario38		NodeStage4_PD3Y1_PD2Y1_PD2Y1
	Scenario39		NodeStage4_PD3Y1_PD2Y2_PD1Y1
	Scenario40		NodeStage4_PD3Y1_PD2Y2_PD2Y1
	Scenario41		NodeStage4_PD3Y2_PD1Y1_PD1Y1
	Scenario42		NodeStage4_PD3Y2_PD1Y1_PD2Y1
	Scenario43		NodeStage4_PD3Y2_PD1Y2_PD1Y1
	Scenario44		NodeStage4_PD3Y2_PD1Y2_PD2Y1
	Scenario45		NodeStage4_PD3Y2_PD2Y1_PD1Y1
	Scenario46		NodeStage4_PD3Y2_PD2Y1_PD2Y1
	Scenario47		NodeStage4_PD3Y2_PD2Y2_PD1Y1
	Scenario48		NodeStage4_PD3Y2_PD2Y2_PD2Y1
;
set StageVariables[Ano1Stage] := delta[U1,Ano1]
					delta[U2,Ano1]
					delta[U3,Ano1]
					delta[U4,Ano1]
					delta[U5,Ano1]
					delta[U6,Ano1]
					delta[U7,Ano1]
					delta[U8,Ano1]
					delta[U9,Ano1]
					delta[U10,Ano1]
					delta[U11,Ano1]
					delta[U12,Ano1]
					delta[U13,Ano1]
					delta[U14,Ano1]
					delta[U15,Ano1]
					delta[U16,Ano1]
					delta[U17,Ano1]
					delta[U18,Ano1]
					delta[U19,Ano1]
					delta[U20,Ano1]
					delta[U21,Ano1]
					delta[U22,Ano1]
					delta[U23,Ano1]
					delta[U24,Ano1]
					delta[U25,Ano1]
					gamma[C01,C09,Ano1]
					gamma[C01,C02,Ano1]
					gamma[C02,C09,Ano1]
					gamma[C09,C02,Ano1]
					gamma[C09,E1,Ano1]
					gamma[C09,C03,Ano1]
					gamma[C04,C03,Ano1]
					gamma[C04,I3,Ano1]
					gamma[C06,I3,Ano1]
					gamma[C08,C06,Ano1]
					gamma[C08,I2,Ano1]
					gamma[C07,C08,Ano1]
					gamma[C07,I1,Ano1]
					gamma[C07,C05,Ano1]
					f[C02,C03,Ano1]
					f[C03,E1,Ano1]
					f[C05,I1,Ano1]
					f[I1,I2,Ano1]
					f[I2,I3,Ano1]
					f[I3,E1,Ano1]
					f[C01,C09,Ano1]
					f[C01,C02,Ano1]
					f[C02,C09,Ano1]
					f[C09,C02,Ano1]
					f[C09,E1,Ano1]
					f[C09,C03,Ano1]
					f[C04,C03,Ano1]
					f[C04,I3,Ano1]
					f[C06,I3,Ano1]
					f[C08,C06,Ano1]
					f[C08,I2,Ano1]
					f[C07,C08,Ano1]
					f[C07,I1,Ano1]
					f[C07,C05,Ano1]
					z[E1,Ano1]
					;

set StageVariables[Ano2Stage] := delta[U1,Ano2]
					delta[U2,Ano2]
					delta[U3,Ano2]
					delta[U4,Ano2]
					delta[U5,Ano2]
					delta[U6,Ano2]
					delta[U7,Ano2]
					delta[U8,Ano2]
					delta[U9,Ano2]
					delta[U10,Ano2]
					delta[U11,Ano2]
					delta[U12,Ano2]
					delta[U13,Ano2]
					delta[U14,Ano2]
					delta[U15,Ano2]
					delta[U16,Ano2]
					delta[U17,Ano2]
					delta[U18,Ano2]
					delta[U19,Ano2]
					delta[U20,Ano2]
					delta[U21,Ano2]
					delta[U22,Ano2]
					delta[U23,Ano2]
					delta[U24,Ano2]
					delta[U25,Ano2]
					gamma[C01,C09,Ano2]
					gamma[C01,C02,Ano2]
					gamma[C02,C09,Ano2]
					gamma[C09,C02,Ano2]
					gamma[C09,E1,Ano2]
					gamma[C09,C03,Ano2]
					gamma[C04,C03,Ano2]
					gamma[C04,I3,Ano2]
					gamma[C06,I3,Ano2]
					gamma[C08,C06,Ano2]
					gamma[C08,I2,Ano2]
					gamma[C07,C08,Ano2]
					gamma[C07,I1,Ano2]
					gamma[C07,C05,Ano2]
					f[C02,C03,Ano2]
					f[C03,E1,Ano2]
					f[C05,I1,Ano2]
					f[I1,I2,Ano2]
					f[I2,I3,Ano2]
					f[I3,E1,Ano2]
					f[C01,C09,Ano2]
					f[C01,C02,Ano2]
					f[C02,C09,Ano2]
					f[C09,C02,Ano2]
					f[C09,E1,Ano2]
					f[C09,C03,Ano2]
					f[C04,C03,Ano2]
					f[C04,I3,Ano2]
					f[C06,I3,Ano2]
					f[C08,C06,Ano2]
					f[C08,I2,Ano2]
					f[C07,C08,Ano2]
					f[C07,I1,Ano2]
					f[C07,C05,Ano2]
					z[E1,Ano2]
					;

set StageVariables[Ano3Stage] := delta[U1,Ano3]
					delta[U2,Ano3]
					delta[U3,Ano3]
					delta[U4,Ano3]
					delta[U5,Ano3]
					delta[U6,Ano3]
					delta[U7,Ano3]
					delta[U8,Ano3]
					delta[U9,Ano3]
					delta[U10,Ano3]
					delta[U11,Ano3]
					delta[U12,Ano3]
					delta[U13,Ano3]
					delta[U14,Ano3]
					delta[U15,Ano3]
					delta[U16,Ano3]
					delta[U17,Ano3]
					delta[U18,Ano3]
					delta[U19,Ano3]
					delta[U20,Ano3]
					delta[U21,Ano3]
					delta[U22,Ano3]
					delta[U23,Ano3]
					delta[U24,Ano3]
					delta[U25,Ano3]
					gamma[C01,C09,Ano3]
					gamma[C01,C02,Ano3]
					gamma[C02,C09,Ano3]
					gamma[C09,C02,Ano3]
					gamma[C09,E1,Ano3]
					gamma[C09,C03,Ano3]
					gamma[C04,C03,Ano3]
					gamma[C04,I3,Ano3]
					gamma[C06,I3,Ano3]
					gamma[C08,C06,Ano3]
					gamma[C08,I2,Ano3]
					gamma[C07,C08,Ano3]
					gamma[C07,I1,Ano3]
					gamma[C07,C05,Ano3]
					f[C02,C03,Ano3]
					f[C03,E1,Ano3]
					f[C05,I1,Ano3]
					f[I1,I2,Ano3]
					f[I2,I3,Ano3]
					f[I3,E1,Ano3]
					f[C01,C09,Ano3]
					f[C01,C02,Ano3]
					f[C02,C09,Ano3]
					f[C09,C02,Ano3]
					f[C09,E1,Ano3]
					f[C09,C03,Ano3]
					f[C04,C03,Ano3]
					f[C04,I3,Ano3]
					f[C06,I3,Ano3]
					f[C08,C06,Ano3]
					f[C08,I2,Ano3]
					f[C07,C08,Ano3]
					f[C07,I1,Ano3]
					f[C07,C05,Ano3]
					z[E1,Ano3]
					;

set StageVariables[Ano4Stage] := delta[U1,Ano4]
					delta[U2,Ano4]
					delta[U3,Ano4]
					delta[U4,Ano4]
					delta[U5,Ano4]
					delta[U6,Ano4]
					delta[U7,Ano4]
					delta[U8,Ano4]
					delta[U9,Ano4]
					delta[U10,Ano4]
					delta[U11,Ano4]
					delta[U12,Ano4]
					delta[U13,Ano4]
					delta[U14,Ano4]
					delta[U15,Ano4]
					delta[U16,Ano4]
					delta[U17,Ano4]
					delta[U18,Ano4]
					delta[U19,Ano4]
					delta[U20,Ano4]
					delta[U21,Ano4]
					delta[U22,Ano4]
					delta[U23,Ano4]
					delta[U24,Ano4]
					delta[U25,Ano4]
					gamma[C01,C09,Ano4]
					gamma[C01,C02,Ano4]
					gamma[C02,C09,Ano4]
					gamma[C09,C02,Ano4]
					gamma[C09,E1,Ano4]
					gamma[C09,C03,Ano4]
					gamma[C04,C03,Ano4]
					gamma[C04,I3,Ano4]
					gamma[C06,I3,Ano4]
					gamma[C08,C06,Ano4]
					gamma[C08,I2,Ano4]
					gamma[C07,C08,Ano4]
					gamma[C07,I1,Ano4]
					gamma[C07,C05,Ano4]
					f[C02,C03,Ano4]
					f[C03,E1,Ano4]
					f[C05,I1,Ano4]
					f[I1,I2,Ano4]
					f[I2,I3,Ano4]
					f[I3,E1,Ano4]
					f[C01,C09,Ano4]
					f[C01,C02,Ano4]
					f[C02,C09,Ano4]
					f[C09,C02,Ano4]
					f[C09,E1,Ano4]
					f[C09,C03,Ano4]
					f[C04,C03,Ano4]
					f[C04,I3,Ano4]
					f[C06,I3,Ano4]
					f[C08,C06,Ano4]
					f[C08,I2,Ano4]
					f[C07,C08,Ano4]
					f[C07,I1,Ano4]
					f[C07,C05,Ano4]
					z[E1,Ano4]
					;

param StageCostVariable := Ano1Stage AnoProfit[Ano1]
                           Ano2Stage AnoProfit[Ano2] 
                           Ano3Stage AnoProfit[Ano3]
                           Ano4Stage AnoProfit[Ano4]
;

param ScenarioBasedData := False
;
